120
150
21
59
48
63
66
45
54
79
93
22
49
45
79
98
63
64
46
20
77
34
29
45
71
96
97
78
82
57
64
77
96
23
43
80
71
24
39
37
33
77
76
27
36
69
65
74
58
38
56
57
25
41
92
40
36
44
98
79
37
84
43
58
66
48
87
45
69
48
63
54
50
54
73
52
95
68
45
42
90
44
77
38
54
89
57
82
45
85
90
69
71
63
44
95
94
26
63
69
65
20
24
62
36
20
39
53
82
59
26
65
71
40
72
67
73
73
82
30
74
95
